formal/invaders_proof/model/design_smt2.smt2
; SMT-LIBv2 description generated by Yosys 0.8+143 (git sha1 c82aa49, clang 3.8.0-2ubuntu4 -fPIC -Os)
; yosys-smt2-module $paramod/timer_1us/PERIOD=100000
(declare-sort |$paramod/timer_1us/PERIOD=100000_s| 0)
(declare-fun |$paramod/timer_1us/PERIOD=100000_is| (|$paramod/timer_1us/PERIOD=100000_s|) Bool)
; yosys-smt2-output o_q 1
; yosys-smt2-register o_q 1
; yosys-smt2-wire o_q 1
(declare-fun |$paramod/timer_1us/PERIOD=100000#0| (|$paramod/timer_1us/PERIOD=100000_s|) (_ BitVec 1)) ; \o_q
(define-fun |$paramod/timer_1us/PERIOD=100000_n o_q| ((state |$paramod/timer_1us/PERIOD=100000_s|)) Bool (= ((_ extract 0 0) (|$paramod/timer_1us/PERIOD=100000#0| state)) #b1))
; yosys-smt2-input i_reset 1
; yosys-smt2-wire i_reset 1
(declare-fun |$paramod/timer_1us/PERIOD=100000#1| (|$paramod/timer_1us/PERIOD=100000_s|) Bool) ; \i_reset
(define-fun |$paramod/timer_1us/PERIOD=100000_n i_reset| ((state |$paramod/timer_1us/PERIOD=100000_s|)) Bool (|$paramod/timer_1us/PERIOD=100000#1| state))
; yosys-smt2-input i_clk_36MHz 1
; yosys-smt2-wire i_clk_36MHz 1
; yosys-smt2-clock i_clk_36MHz posedge
(declare-fun |$paramod/timer_1us/PERIOD=100000#2| (|$paramod/timer_1us/PERIOD=100000_s|) Bool) ; \i_clk_36MHz
(define-fun |$paramod/timer_1us/PERIOD=100000_n i_clk_36MHz| ((state |$paramod/timer_1us/PERIOD=100000_s|)) Bool (|$paramod/timer_1us/PERIOD=100000#2| state))
; yosys-smt2-register count 32
; yosys-smt2-wire count 32
(declare-fun |$paramod/timer_1us/PERIOD=100000#3| (|$paramod/timer_1us/PERIOD=100000_s|) (_ BitVec 32)) ; \count
(define-fun |$paramod/timer_1us/PERIOD=100000_n count| ((state |$paramod/timer_1us/PERIOD=100000_s|)) (_ BitVec 32) (|$paramod/timer_1us/PERIOD=100000#3| state))
(define-fun |$paramod/timer_1us/PERIOD=100000#4| ((state |$paramod/timer_1us/PERIOD=100000_s|)) (_ BitVec 32) (bvadd (|$paramod/timer_1us/PERIOD=100000#3| state) #b00000000000000000000000000000001)) ; $add$timer_1us.v:31$142_Y
(define-fun |$paramod/timer_1us/PERIOD=100000#5| ((state |$paramod/timer_1us/PERIOD=100000_s|)) Bool (= (|$paramod/timer_1us/PERIOD=100000#3| state) #b00000000001101101110111001111111)) ; $eq$timer_1us.v:26$141_Y
(define-fun |$paramod/timer_1us/PERIOD=100000#6| ((state |$paramod/timer_1us/PERIOD=100000_s|)) (_ BitVec 32) (ite (|$paramod/timer_1us/PERIOD=100000#5| state) #b00000000000000000000000000000000 (|$paramod/timer_1us/PERIOD=100000#4| state))) ; $procmux$153_Y
(define-fun |$paramod/timer_1us/PERIOD=100000#7| ((state |$paramod/timer_1us/PERIOD=100000_s|)) (_ BitVec 32) (ite (|$paramod/timer_1us/PERIOD=100000#1| state) (|$paramod/timer_1us/PERIOD=100000#6| state) #b00000000000000000000000000000000)) ; $0\count[31:0]
(define-fun |$paramod/timer_1us/PERIOD=100000#8| ((state |$paramod/timer_1us/PERIOD=100000_s|)) (_ BitVec 1) (ite (|$paramod/timer_1us/PERIOD=100000#5| state) #b1 #b0)) ; $procmux$159_Y
(define-fun |$paramod/timer_1us/PERIOD=100000#9| ((state |$paramod/timer_1us/PERIOD=100000_s|)) (_ BitVec 1) (ite (|$paramod/timer_1us/PERIOD=100000#1| state) (|$paramod/timer_1us/PERIOD=100000#8| state) #b0)) ; $0\o_q[0:0]
(define-fun |$paramod/timer_1us/PERIOD=100000_a| ((state |$paramod/timer_1us/PERIOD=100000_s|)) Bool true)
(define-fun |$paramod/timer_1us/PERIOD=100000_u| ((state |$paramod/timer_1us/PERIOD=100000_s|)) Bool true)
(define-fun |$paramod/timer_1us/PERIOD=100000_i| ((state |$paramod/timer_1us/PERIOD=100000_s|)) Bool (and
  (= (= ((_ extract 0 0) (|$paramod/timer_1us/PERIOD=100000#0| state)) #b1) false) ; o_q
  (= (|$paramod/timer_1us/PERIOD=100000#3| state) #b00000000000000000000000000000000) ; count
))
(define-fun |$paramod/timer_1us/PERIOD=100000_h| ((state |$paramod/timer_1us/PERIOD=100000_s|)) Bool true)
(define-fun |$paramod/timer_1us/PERIOD=100000_t| ((state |$paramod/timer_1us/PERIOD=100000_s|) (next_state |$paramod/timer_1us/PERIOD=100000_s|)) Bool (and
  (= (|$paramod/timer_1us/PERIOD=100000#7| state) (|$paramod/timer_1us/PERIOD=100000#3| next_state)) ; $procdff$913 \count
  (= (|$paramod/timer_1us/PERIOD=100000#9| state) (|$paramod/timer_1us/PERIOD=100000#0| next_state)) ; $procdff$912 \o_q
)) ; end of module $paramod/timer_1us/PERIOD=100000
; yosys-smt2-module invaders
(declare-sort |invaders_s| 0)
(declare-fun |invaders_is| (|invaders_s|) Bool)
; yosys-smt2-wire tick 1
; yosys-smt2-cell $paramod/timer_1us/PERIOD=100000 speed_timer1
(declare-fun |invaders#0| (|invaders_s|) Bool) ; \tick
(declare-fun |invaders_h speed_timer1| (|invaders_s|) |$paramod/timer_1us/PERIOD=100000_s|)
(define-fun |invaders_n tick| ((state |invaders_s|)) Bool (|invaders#0| state))
; yosys-smt2-output o_invaders_row 4
; yosys-smt2-register o_invaders_row 4
; yosys-smt2-wire o_invaders_row 4
(declare-fun |invaders#1| (|invaders_s|) (_ BitVec 4)) ; \o_invaders_row
(define-fun |invaders_n o_invaders_row| ((state |invaders_s|)) (_ BitVec 4) (|invaders#1| state))
; yosys-smt2-output o_invaders_array 20
; yosys-smt2-register o_invaders_array 20
; yosys-smt2-wire o_invaders_array 20
(declare-fun |invaders#2| (|invaders_s|) (_ BitVec 20)) ; \o_invaders_array
(define-fun |invaders_n o_invaders_array| ((state |invaders_s|)) (_ BitVec 20) (|invaders#2| state))
; yosys-smt2-output o_hit 1
; yosys-smt2-register o_hit 1
; yosys-smt2-wire o_hit 1
(declare-fun |invaders#3| (|invaders_s|) (_ BitVec 1)) ; \o_hit
(define-fun |invaders_n o_hit| ((state |invaders_s|)) Bool (= ((_ extract 0 0) (|invaders#3| state)) #b1))
; yosys-smt2-input i_reset 1
; yosys-smt2-wire i_reset 1
(declare-fun |invaders#4| (|invaders_s|) Bool) ; \i_reset
(define-fun |invaders_n i_reset| ((state |invaders_s|)) Bool (|invaders#4| state))
; yosys-smt2-input i_clk_36MHz 1
; yosys-smt2-wire i_clk_36MHz 1
; yosys-smt2-clock i_clk_36MHz posedge
(declare-fun |invaders#5| (|invaders_s|) Bool) ; \i_clk_36MHz
(define-fun |invaders_n i_clk_36MHz| ((state |invaders_s|)) Bool (|invaders#5| state))
; yosys-smt2-input i_bullet_y 4
; yosys-smt2-wire i_bullet_y 4
(declare-fun |invaders#6| (|invaders_s|) (_ BitVec 4)) ; \i_bullet_y
(define-fun |invaders_n i_bullet_y| ((state |invaders_s|)) (_ BitVec 4) (|invaders#6| state))
; yosys-smt2-input i_bullet_x 5
; yosys-smt2-wire i_bullet_x 5
(declare-fun |invaders#7| (|invaders_s|) (_ BitVec 5)) ; \i_bullet_x
(define-fun |invaders_n i_bullet_x| ((state |invaders_s|)) (_ BitVec 5) (|invaders#7| state))
; yosys-smt2-register direction 1
; yosys-smt2-wire direction 1
(declare-fun |invaders#8| (|invaders_s|) (_ BitVec 1)) ; \direction
(define-fun |invaders_n direction| ((state |invaders_s|)) Bool (= ((_ extract 0 0) (|invaders#8| state)) #b1))
(define-fun |invaders#9| ((state |invaders_s|)) (_ BitVec 1) (ite (= ((_ extract 0 0) (|invaders#2| state)) #b1) #b0 #b1)) ; $procmux$844_Y
(define-fun |invaders#10| ((state |invaders_s|)) (_ BitVec 1) (ite (= ((_ extract 0 0) (|invaders#8| state)) #b1) (|invaders#9| state) #b0)) ; $procmux$846_Y
(define-fun |invaders#11| ((state |invaders_s|)) (_ BitVec 1) (ite (|invaders#0| state) (|invaders#10| state) (|invaders#8| state))) ; $procmux$848_Y
(define-fun |invaders#12| ((state |invaders_s|)) (_ BitVec 5) (bvadd (concat #b0 (|invaders#1| state)) #b00001)) ; $add$invaders.v:45$37_Y
(define-fun |invaders#13| ((state |invaders_s|)) Bool (= (concat #b0 (|invaders#6| state)) (|invaders#12| state))) ; $eq$invaders.v:45$38_Y
(define-fun |invaders#14| ((state |invaders_s|)) (_ BitVec 1) ((_ extract 0 0) (bvlshr (|invaders#2| state) (concat #b000000000000000 (|invaders#7| state))))) ; $eq$invaders.v:45$40_Y
(define-fun |invaders#15| ((state |invaders_s|)) Bool (and (or  (|invaders#13| state) false) (or  (= ((_ extract 0 0) (|invaders#14| state)) #b1) false))) ; $logic_and$invaders.v:45$41_Y
(define-fun |invaders#16| ((state |invaders_s|)) (_ BitVec 1) (ite (|invaders#15| state) (|invaders#8| state) (|invaders#11| state))) ; $procmux$851_Y
(define-fun |invaders#17| ((state |invaders_s|)) (_ BitVec 1) (ite (|invaders#4| state) #b0 (|invaders#16| state))) ; $0\direction[0:0]
(define-fun |invaders#18| ((state |invaders_s|)) (_ BitVec 1) (ite (= ((_ extract 0 0) (|invaders#8| state)) #b1) (|invaders#3| state) #b0)) ; $procmux$902_Y
(define-fun |invaders#19| ((state |invaders_s|)) (_ BitVec 1) (ite (|invaders#0| state) (|invaders#18| state) #b0)) ; $procmux$904_Y
(define-fun |invaders#20| ((state |invaders_s|)) (_ BitVec 1) (ite (|invaders#15| state) #b1 (|invaders#19| state))) ; $procmux$907_Y
(define-fun |invaders#21| ((state |invaders_s|)) (_ BitVec 1) (ite (|invaders#4| state) #b0 (|invaders#20| state))) ; $0\o_hit[0:0]
(define-fun |invaders#22| ((state |invaders_s|)) (_ BitVec 1) (ite (= ((_ extract 0 0) (|invaders#2| state)) #b1) #b1 ((_ extract 1 1) (|invaders#2| state)))) ; $procmux$666_Y
(define-fun |invaders#23| ((state |invaders_s|)) (_ BitVec 1) (ite (= ((_ extract 0 0) (|invaders#8| state)) #b1) (|invaders#22| state) ((_ extract 0 0) (|invaders#2| state)))) ; $procmux$668_Y
(define-fun |invaders#24| ((state |invaders_s|)) (_ BitVec 1) (ite (|invaders#0| state) (|invaders#23| state) ((_ extract 0 0) (|invaders#2| state)))) ; $procmux$670_Y
(define-fun |invaders#25| ((state |invaders_s|)) Bool (not (or  (= ((_ extract 0 0) (|invaders#7| state)) #b1) (= ((_ extract 1 1) (|invaders#7| state)) #b1) (= ((_ extract 2 2) (|invaders#7| state)) #b1) (= ((_ extract 3 3) (|invaders#7| state)) #b1) (= ((_ extract 4 4) (|invaders#7| state)) #b1)))) ; $procmux$693_CMP
(define-fun |invaders#26| ((state |invaders_s|)) (_ BitVec 1) (ite (|invaders#25| state) #b0 ((_ extract 0 0) (|invaders#2| state)))) ; $procmux$692_Y
(define-fun |invaders#27| ((state |invaders_s|)) (_ BitVec 1) (ite (|invaders#15| state) (|invaders#26| state) (|invaders#24| state))) ; $procmux$694_Y
(define-fun |invaders#28| ((state |invaders_s|)) (_ BitVec 1) (ite (|invaders#4| state) #b1 (|invaders#27| state))) ; $0\o_invaders_array[19:0] [0]
(define-fun |invaders#29| ((state |invaders_s|)) (_ BitVec 1) (ite (= ((_ extract 0 0) (|invaders#2| state)) #b1) ((_ extract 1 1) (|invaders#2| state)) ((_ extract 2 2) (|invaders#2| state)))) ; $procmux$624_Y
(define-fun |invaders#30| ((state |invaders_s|)) (_ BitVec 1) (ite (= ((_ extract 0 0) (|invaders#8| state)) #b1) (|invaders#29| state) ((_ extract 1 1) (|invaders#2| state)))) ; $procmux$626_Y
(define-fun |invaders#31| ((state |invaders_s|)) (_ BitVec 1) (ite (|invaders#0| state) (|invaders#30| state) ((_ extract 1 1) (|invaders#2| state)))) ; $procmux$628_Y
(define-fun |invaders#32| ((state |invaders_s|)) Bool (= (|invaders#7| state) #b00001)) ; $procmux$650_CMP
(define-fun |invaders#33| ((state |invaders_s|)) (_ BitVec 1) (ite (|invaders#32| state) #b0 ((_ extract 1 1) (|invaders#2| state)))) ; $procmux$649_Y
(define-fun |invaders#34| ((state |invaders_s|)) (_ BitVec 1) (ite (|invaders#15| state) (|invaders#33| state) (|invaders#31| state))) ; $procmux$651_Y
(define-fun |invaders#35| ((state |invaders_s|)) (_ BitVec 1) (ite (|invaders#4| state) #b1 (|invaders#34| state))) ; $0\o_invaders_array[19:0] [1]
(define-fun |invaders#36| ((state |invaders_s|)) (_ BitVec 1) (ite (= ((_ extract 0 0) (|invaders#2| state)) #b1) ((_ extract 2 2) (|invaders#2| state)) ((_ extract 3 3) (|invaders#2| state)))) ; $procmux$583_Y
(define-fun |invaders#37| ((state |invaders_s|)) (_ BitVec 1) (ite (= ((_ extract 0 0) (|invaders#8| state)) #b1) (|invaders#36| state) ((_ extract 2 2) (|invaders#2| state)))) ; $procmux$585_Y
(define-fun |invaders#38| ((state |invaders_s|)) (_ BitVec 1) (ite (|invaders#0| state) (|invaders#37| state) ((_ extract 2 2) (|invaders#2| state)))) ; $procmux$587_Y
(define-fun |invaders#39| ((state |invaders_s|)) Bool (= (|invaders#7| state) #b00010)) ; $procmux$608_CMP
(define-fun |invaders#40| ((state |invaders_s|)) (_ BitVec 1) (ite (|invaders#39| state) #b0 ((_ extract 2 2) (|invaders#2| state)))) ; $procmux$607_Y
(define-fun |invaders#41| ((state |invaders_s|)) (_ BitVec 1) (ite (|invaders#15| state) (|invaders#40| state) (|invaders#38| state))) ; $procmux$609_Y
(define-fun |invaders#42| ((state |invaders_s|)) (_ BitVec 1) (ite (|invaders#4| state) #b1 (|invaders#41| state))) ; $0\o_invaders_array[19:0] [2]
(define-fun |invaders#43| ((state |invaders_s|)) (_ BitVec 1) (ite (= ((_ extract 0 0) (|invaders#2| state)) #b1) ((_ extract 3 3) (|invaders#2| state)) ((_ extract 4 4) (|invaders#2| state)))) ; $procmux$543_Y
(define-fun |invaders#44| ((state |invaders_s|)) (_ BitVec 1) (ite (= ((_ extract 0 0) (|invaders#8| state)) #b1) (|invaders#43| state) ((_ extract 3 3) (|invaders#2| state)))) ; $procmux$545_Y
(define-fun |invaders#45| ((state |invaders_s|)) (_ BitVec 1) (ite (|invaders#0| state) (|invaders#44| state) ((_ extract 3 3) (|invaders#2| state)))) ; $procmux$547_Y
(define-fun |invaders#46| ((state |invaders_s|)) Bool (= (|invaders#7| state) #b00011)) ; $procmux$567_CMP
(define-fun |invaders#47| ((state |invaders_s|)) (_ BitVec 1) (ite (|invaders#46| state) #b0 ((_ extract 3 3) (|invaders#2| state)))) ; $procmux$566_Y
(define-fun |invaders#48| ((state |invaders_s|)) (_ BitVec 1) (ite (|invaders#15| state) (|invaders#47| state) (|invaders#45| state))) ; $procmux$568_Y
(define-fun |invaders#49| ((state |invaders_s|)) (_ BitVec 1) (ite (|invaders#4| state) #b1 (|invaders#48| state))) ; $0\o_invaders_array[19:0] [3]
(define-fun |invaders#50| ((state |invaders_s|)) (_ BitVec 1) (ite (= ((_ extract 0 0) (|invaders#2| state)) #b1) ((_ extract 4 4) (|invaders#2| state)) ((_ extract 5 5) (|invaders#2| state)))) ; $procmux$504_Y
(define-fun |invaders#51| ((state |invaders_s|)) (_ BitVec 1) (ite (= ((_ extract 0 0) (|invaders#8| state)) #b1) (|invaders#50| state) ((_ extract 4 4) (|invaders#2| state)))) ; $procmux$506_Y
(define-fun |invaders#52| ((state |invaders_s|)) (_ BitVec 1) (ite (|invaders#0| state) (|invaders#51| state) ((_ extract 4 4) (|invaders#2| state)))) ; $procmux$508_Y
(define-fun |invaders#53| ((state |invaders_s|)) Bool (= (|invaders#7| state) #b00100)) ; $procmux$527_CMP
(define-fun |invaders#54| ((state |invaders_s|)) (_ BitVec 1) (ite (|invaders#53| state) #b0 ((_ extract 4 4) (|invaders#2| state)))) ; $procmux$526_Y
(define-fun |invaders#55| ((state |invaders_s|)) (_ BitVec 1) (ite (|invaders#15| state) (|invaders#54| state) (|invaders#52| state))) ; $procmux$528_Y
(define-fun |invaders#56| ((state |invaders_s|)) (_ BitVec 1) (ite (|invaders#4| state) #b1 (|invaders#55| state))) ; $0\o_invaders_array[19:0] [4]
(define-fun |invaders#57| ((state |invaders_s|)) (_ BitVec 1) (ite (= ((_ extract 0 0) (|invaders#2| state)) #b1) ((_ extract 5 5) (|invaders#2| state)) ((_ extract 6 6) (|invaders#2| state)))) ; $procmux$466_Y
(define-fun |invaders#58| ((state |invaders_s|)) (_ BitVec 1) (ite (= ((_ extract 0 0) (|invaders#8| state)) #b1) (|invaders#57| state) ((_ extract 5 5) (|invaders#2| state)))) ; $procmux$468_Y
(define-fun |invaders#59| ((state |invaders_s|)) (_ BitVec 1) (ite (|invaders#0| state) (|invaders#58| state) ((_ extract 5 5) (|invaders#2| state)))) ; $procmux$470_Y
(define-fun |invaders#60| ((state |invaders_s|)) Bool (= (|invaders#7| state) #b00101)) ; $procmux$488_CMP
(define-fun |invaders#61| ((state |invaders_s|)) (_ BitVec 1) (ite (|invaders#60| state) #b0 ((_ extract 5 5) (|invaders#2| state)))) ; $procmux$487_Y
(define-fun |invaders#62| ((state |invaders_s|)) (_ BitVec 1) (ite (|invaders#15| state) (|invaders#61| state) (|invaders#59| state))) ; $procmux$489_Y
(define-fun |invaders#63| ((state |invaders_s|)) (_ BitVec 1) (ite (|invaders#4| state) #b1 (|invaders#62| state))) ; $0\o_invaders_array[19:0] [5]
(define-fun |invaders#64| ((state |invaders_s|)) (_ BitVec 1) (ite (= ((_ extract 0 0) (|invaders#2| state)) #b1) ((_ extract 6 6) (|invaders#2| state)) ((_ extract 7 7) (|invaders#2| state)))) ; $procmux$429_Y
(define-fun |invaders#65| ((state |invaders_s|)) (_ BitVec 1) (ite (= ((_ extract 0 0) (|invaders#8| state)) #b1) (|invaders#64| state) ((_ extract 6 6) (|invaders#2| state)))) ; $procmux$431_Y
(define-fun |invaders#66| ((state |invaders_s|)) (_ BitVec 1) (ite (|invaders#0| state) (|invaders#65| state) ((_ extract 6 6) (|invaders#2| state)))) ; $procmux$433_Y
(define-fun |invaders#67| ((state |invaders_s|)) Bool (= (|invaders#7| state) #b00110)) ; $procmux$450_CMP
(define-fun |invaders#68| ((state |invaders_s|)) (_ BitVec 1) (ite (|invaders#67| state) #b0 ((_ extract 6 6) (|invaders#2| state)))) ; $procmux$449_Y
(define-fun |invaders#69| ((state |invaders_s|)) (_ BitVec 1) (ite (|invaders#15| state) (|invaders#68| state) (|invaders#66| state))) ; $procmux$451_Y
(define-fun |invaders#70| ((state |invaders_s|)) (_ BitVec 1) (ite (|invaders#4| state) #b1 (|invaders#69| state))) ; $0\o_invaders_array[19:0] [6]
(define-fun |invaders#71| ((state |invaders_s|)) (_ BitVec 1) (ite (= ((_ extract 0 0) (|invaders#2| state)) #b1) ((_ extract 7 7) (|invaders#2| state)) ((_ extract 8 8) (|invaders#2| state)))) ; $procmux$393_Y
(define-fun |invaders#72| ((state |invaders_s|)) (_ BitVec 1) (ite (= ((_ extract 0 0) (|invaders#8| state)) #b1) (|invaders#71| state) ((_ extract 7 7) (|invaders#2| state)))) ; $procmux$395_Y
(define-fun |invaders#73| ((state |invaders_s|)) (_ BitVec 1) (ite (|invaders#0| state) (|invaders#72| state) ((_ extract 7 7) (|invaders#2| state)))) ; $procmux$397_Y
(define-fun |invaders#74| ((state |invaders_s|)) Bool (= (|invaders#7| state) #b00111)) ; $procmux$413_CMP
(define-fun |invaders#75| ((state |invaders_s|)) (_ BitVec 1) (ite (|invaders#74| state) #b0 ((_ extract 7 7) (|invaders#2| state)))) ; $procmux$412_Y
(define-fun |invaders#76| ((state |invaders_s|)) (_ BitVec 1) (ite (|invaders#15| state) (|invaders#75| state) (|invaders#73| state))) ; $procmux$414_Y
(define-fun |invaders#77| ((state |invaders_s|)) (_ BitVec 1) (ite (|invaders#4| state) #b1 (|invaders#76| state))) ; $0\o_invaders_array[19:0] [7]
(define-fun |invaders#78| ((state |invaders_s|)) (_ BitVec 1) (ite (= ((_ extract 0 0) (|invaders#2| state)) #b1) ((_ extract 8 8) (|invaders#2| state)) ((_ extract 9 9) (|invaders#2| state)))) ; $procmux$358_Y
(define-fun |invaders#79| ((state |invaders_s|)) (_ BitVec 1) (ite (= ((_ extract 0 0) (|invaders#8| state)) #b1) (|invaders#78| state) ((_ extract 8 8) (|invaders#2| state)))) ; $procmux$360_Y
(define-fun |invaders#80| ((state |invaders_s|)) (_ BitVec 1) (ite (|invaders#0| state) (|invaders#79| state) ((_ extract 8 8) (|invaders#2| state)))) ; $procmux$362_Y
(define-fun |invaders#81| ((state |invaders_s|)) Bool (= (|invaders#7| state) #b01000)) ; $procmux$377_CMP
(define-fun |invaders#82| ((state |invaders_s|)) (_ BitVec 1) (ite (|invaders#81| state) #b0 ((_ extract 8 8) (|invaders#2| state)))) ; $procmux$376_Y
(define-fun |invaders#83| ((state |invaders_s|)) (_ BitVec 1) (ite (|invaders#15| state) (|invaders#82| state) (|invaders#80| state))) ; $procmux$378_Y
(define-fun |invaders#84| ((state |invaders_s|)) (_ BitVec 1) (ite (|invaders#4| state) #b1 (|invaders#83| state))) ; $0\o_invaders_array[19:0] [8]
(define-fun |invaders#85| ((state |invaders_s|)) (_ BitVec 1) (ite (= ((_ extract 0 0) (|invaders#2| state)) #b1) ((_ extract 9 9) (|invaders#2| state)) ((_ extract 10 10) (|invaders#2| state)))) ; $procmux$324_Y
(define-fun |invaders#86| ((state |invaders_s|)) (_ BitVec 1) (ite (= ((_ extract 0 0) (|invaders#8| state)) #b1) (|invaders#85| state) ((_ extract 9 9) (|invaders#2| state)))) ; $procmux$326_Y
(define-fun |invaders#87| ((state |invaders_s|)) (_ BitVec 1) (ite (|invaders#0| state) (|invaders#86| state) ((_ extract 9 9) (|invaders#2| state)))) ; $procmux$328_Y
(define-fun |invaders#88| ((state |invaders_s|)) Bool (= (|invaders#7| state) #b01001)) ; $procmux$342_CMP
(define-fun |invaders#89| ((state |invaders_s|)) (_ BitVec 1) (ite (|invaders#88| state) #b0 ((_ extract 9 9) (|invaders#2| state)))) ; $procmux$341_Y
(define-fun |invaders#90| ((state |invaders_s|)) (_ BitVec 1) (ite (|invaders#15| state) (|invaders#89| state) (|invaders#87| state))) ; $procmux$343_Y
(define-fun |invaders#91| ((state |invaders_s|)) (_ BitVec 1) (ite (|invaders#4| state) #b0 (|invaders#90| state))) ; $0\o_invaders_array[19:0] [9]
(define-fun |invaders#92| ((state |invaders_s|)) (_ BitVec 1) (ite (= ((_ extract 0 0) (|invaders#2| state)) #b1) ((_ extract 10 10) (|invaders#2| state)) ((_ extract 11 11) (|invaders#2| state)))) ; $procmux$291_Y
(define-fun |invaders#93| ((state |invaders_s|)) (_ BitVec 1) (ite (= ((_ extract 0 0) (|invaders#8| state)) #b1) (|invaders#92| state) ((_ extract 10 10) (|invaders#2| state)))) ; $procmux$293_Y
(define-fun |invaders#94| ((state |invaders_s|)) (_ BitVec 1) (ite (|invaders#0| state) (|invaders#93| state) ((_ extract 10 10) (|invaders#2| state)))) ; $procmux$295_Y
(define-fun |invaders#95| ((state |invaders_s|)) Bool (= (|invaders#7| state) #b01010)) ; $procmux$308_CMP
(define-fun |invaders#96| ((state |invaders_s|)) (_ BitVec 1) (ite (|invaders#95| state) #b0 ((_ extract 10 10) (|invaders#2| state)))) ; $procmux$307_Y
(define-fun |invaders#97| ((state |invaders_s|)) (_ BitVec 1) (ite (|invaders#15| state) (|invaders#96| state) (|invaders#94| state))) ; $procmux$309_Y
(define-fun |invaders#98| ((state |invaders_s|)) (_ BitVec 1) (ite (|invaders#4| state) #b0 (|invaders#97| state))) ; $0\o_invaders_array[19:0] [10]
(define-fun |invaders#99| ((state |invaders_s|)) (_ BitVec 1) (ite (= ((_ extract 0 0) (|invaders#2| state)) #b1) ((_ extract 11 11) (|invaders#2| state)) ((_ extract 12 12) (|invaders#2| state)))) ; $procmux$259_Y
(define-fun |invaders#100| ((state |invaders_s|)) (_ BitVec 1) (ite (= ((_ extract 0 0) (|invaders#8| state)) #b1) (|invaders#99| state) ((_ extract 11 11) (|invaders#2| state)))) ; $procmux$261_Y
(define-fun |invaders#101| ((state |invaders_s|)) (_ BitVec 1) (ite (|invaders#0| state) (|invaders#100| state) ((_ extract 11 11) (|invaders#2| state)))) ; $procmux$263_Y
(define-fun |invaders#102| ((state |invaders_s|)) Bool (= (|invaders#7| state) #b01011)) ; $procmux$275_CMP
(define-fun |invaders#103| ((state |invaders_s|)) (_ BitVec 1) (ite (|invaders#102| state) #b0 ((_ extract 11 11) (|invaders#2| state)))) ; $procmux$274_Y
(define-fun |invaders#104| ((state |invaders_s|)) (_ BitVec 1) (ite (|invaders#15| state) (|invaders#103| state) (|invaders#101| state))) ; $procmux$276_Y
(define-fun |invaders#105| ((state |invaders_s|)) (_ BitVec 1) (ite (|invaders#4| state) #b0 (|invaders#104| state))) ; $0\o_invaders_array[19:0] [11]
(define-fun |invaders#106| ((state |invaders_s|)) (_ BitVec 1) (ite (= ((_ extract 0 0) (|invaders#2| state)) #b1) ((_ extract 12 12) (|invaders#2| state)) ((_ extract 13 13) (|invaders#2| state)))) ; $procmux$228_Y
(define-fun |invaders#107| ((state |invaders_s|)) (_ BitVec 1) (ite (= ((_ extract 0 0) (|invaders#8| state)) #b1) (|invaders#106| state) ((_ extract 12 12) (|invaders#2| state)))) ; $procmux$230_Y
(define-fun |invaders#108| ((state |invaders_s|)) (_ BitVec 1) (ite (|invaders#0| state) (|invaders#107| state) ((_ extract 12 12) (|invaders#2| state)))) ; $procmux$232_Y
(define-fun |invaders#109| ((state |invaders_s|)) Bool (= (|invaders#7| state) #b01100)) ; $procmux$243_CMP
(define-fun |invaders#110| ((state |invaders_s|)) (_ BitVec 1) (ite (|invaders#109| state) #b0 ((_ extract 12 12) (|invaders#2| state)))) ; $procmux$242_Y
(define-fun |invaders#111| ((state |invaders_s|)) (_ BitVec 1) (ite (|invaders#15| state) (|invaders#110| state) (|invaders#108| state))) ; $procmux$244_Y
(define-fun |invaders#112| ((state |invaders_s|)) (_ BitVec 1) (ite (|invaders#4| state) #b0 (|invaders#111| state))) ; $0\o_invaders_array[19:0] [12]
(define-fun |invaders#113| ((state |invaders_s|)) (_ BitVec 1) (ite (= ((_ extract 0 0) (|invaders#2| state)) #b1) ((_ extract 13 13) (|invaders#2| state)) ((_ extract 14 14) (|invaders#2| state)))) ; $procmux$198_Y
(define-fun |invaders#114| ((state |invaders_s|)) (_ BitVec 1) (ite (= ((_ extract 0 0) (|invaders#8| state)) #b1) (|invaders#113| state) ((_ extract 13 13) (|invaders#2| state)))) ; $procmux$200_Y
(define-fun |invaders#115| ((state |invaders_s|)) (_ BitVec 1) (ite (|invaders#0| state) (|invaders#114| state) ((_ extract 13 13) (|invaders#2| state)))) ; $procmux$202_Y
(define-fun |invaders#116| ((state |invaders_s|)) Bool (= (|invaders#7| state) #b01101)) ; $procmux$212_CMP
(define-fun |invaders#117| ((state |invaders_s|)) (_ BitVec 1) (ite (|invaders#116| state) #b0 ((_ extract 13 13) (|invaders#2| state)))) ; $procmux$211_Y
(define-fun |invaders#118| ((state |invaders_s|)) (_ BitVec 1) (ite (|invaders#15| state) (|invaders#117| state) (|invaders#115| state))) ; $procmux$213_Y
(define-fun |invaders#119| ((state |invaders_s|)) (_ BitVec 1) (ite (|invaders#4| state) #b0 (|invaders#118| state))) ; $0\o_invaders_array[19:0] [13]
(define-fun |invaders#120| ((state |invaders_s|)) (_ BitVec 1) (ite (= ((_ extract 0 0) (|invaders#2| state)) #b1) ((_ extract 14 14) (|invaders#2| state)) ((_ extract 15 15) (|invaders#2| state)))) ; $procmux$815_Y
(define-fun |invaders#121| ((state |invaders_s|)) (_ BitVec 1) (ite (= ((_ extract 0 0) (|invaders#8| state)) #b1) (|invaders#120| state) ((_ extract 14 14) (|invaders#2| state)))) ; $procmux$817_Y
(define-fun |invaders#122| ((state |invaders_s|)) (_ BitVec 1) (ite (|invaders#0| state) (|invaders#121| state) ((_ extract 14 14) (|invaders#2| state)))) ; $procmux$819_Y
(define-fun |invaders#123| ((state |invaders_s|)) Bool (= (|invaders#7| state) #b01110)) ; $procmux$828_CMP
(define-fun |invaders#124| ((state |invaders_s|)) (_ BitVec 1) (ite (|invaders#123| state) #b0 ((_ extract 14 14) (|invaders#2| state)))) ; $procmux$827_Y
(define-fun |invaders#125| ((state |invaders_s|)) (_ BitVec 1) (ite (|invaders#15| state) (|invaders#124| state) (|invaders#122| state))) ; $procmux$829_Y
(define-fun |invaders#126| ((state |invaders_s|)) (_ BitVec 1) (ite (|invaders#4| state) #b0 (|invaders#125| state))) ; $0\o_invaders_array[19:0] [14]
(define-fun |invaders#127| ((state |invaders_s|)) (_ BitVec 1) (ite (= ((_ extract 0 0) (|invaders#2| state)) #b1) ((_ extract 15 15) (|invaders#2| state)) ((_ extract 16 16) (|invaders#2| state)))) ; $procmux$787_Y
(define-fun |invaders#128| ((state |invaders_s|)) (_ BitVec 1) (ite (= ((_ extract 0 0) (|invaders#8| state)) #b1) (|invaders#127| state) ((_ extract 15 15) (|invaders#2| state)))) ; $procmux$789_Y
(define-fun |invaders#129| ((state |invaders_s|)) (_ BitVec 1) (ite (|invaders#0| state) (|invaders#128| state) ((_ extract 15 15) (|invaders#2| state)))) ; $procmux$791_Y
(define-fun |invaders#130| ((state |invaders_s|)) Bool (= (|invaders#7| state) #b01111)) ; $procmux$799_CMP
(define-fun |invaders#131| ((state |invaders_s|)) (_ BitVec 1) (ite (|invaders#130| state) #b0 ((_ extract 15 15) (|invaders#2| state)))) ; $procmux$798_Y
(define-fun |invaders#132| ((state |invaders_s|)) (_ BitVec 1) (ite (|invaders#15| state) (|invaders#131| state) (|invaders#129| state))) ; $procmux$800_Y
(define-fun |invaders#133| ((state |invaders_s|)) (_ BitVec 1) (ite (|invaders#4| state) #b0 (|invaders#132| state))) ; $0\o_invaders_array[19:0] [15]
(define-fun |invaders#134| ((state |invaders_s|)) (_ BitVec 1) (ite (= ((_ extract 0 0) (|invaders#2| state)) #b1) ((_ extract 16 16) (|invaders#2| state)) ((_ extract 17 17) (|invaders#2| state)))) ; $procmux$760_Y
(define-fun |invaders#135| ((state |invaders_s|)) (_ BitVec 1) (ite (= ((_ extract 0 0) (|invaders#8| state)) #b1) (|invaders#134| state) ((_ extract 16 16) (|invaders#2| state)))) ; $procmux$762_Y
(define-fun |invaders#136| ((state |invaders_s|)) (_ BitVec 1) (ite (|invaders#0| state) (|invaders#135| state) ((_ extract 16 16) (|invaders#2| state)))) ; $procmux$764_Y
(define-fun |invaders#137| ((state |invaders_s|)) Bool (= (|invaders#7| state) #b10000)) ; $procmux$771_CMP
(define-fun |invaders#138| ((state |invaders_s|)) (_ BitVec 1) (ite (|invaders#137| state) #b0 ((_ extract 16 16) (|invaders#2| state)))) ; $procmux$770_Y
(define-fun |invaders#139| ((state |invaders_s|)) (_ BitVec 1) (ite (|invaders#15| state) (|invaders#138| state) (|invaders#136| state))) ; $procmux$772_Y
(define-fun |invaders#140| ((state |invaders_s|)) (_ BitVec 1) (ite (|invaders#4| state) #b0 (|invaders#139| state))) ; $0\o_invaders_array[19:0] [16]
(define-fun |invaders#141| ((state |invaders_s|)) (_ BitVec 1) (ite (= ((_ extract 0 0) (|invaders#2| state)) #b1) ((_ extract 17 17) (|invaders#2| state)) ((_ extract 18 18) (|invaders#2| state)))) ; $procmux$734_Y
(define-fun |invaders#142| ((state |invaders_s|)) (_ BitVec 1) (ite (= ((_ extract 0 0) (|invaders#8| state)) #b1) (|invaders#141| state) ((_ extract 17 17) (|invaders#2| state)))) ; $procmux$736_Y
(define-fun |invaders#143| ((state |invaders_s|)) (_ BitVec 1) (ite (|invaders#0| state) (|invaders#142| state) ((_ extract 17 17) (|invaders#2| state)))) ; $procmux$738_Y
(define-fun |invaders#144| ((state |invaders_s|)) Bool (= (|invaders#7| state) #b10001)) ; $procmux$744_CMP
(define-fun |invaders#145| ((state |invaders_s|)) (_ BitVec 1) (ite (|invaders#144| state) #b0 ((_ extract 17 17) (|invaders#2| state)))) ; $procmux$743_Y
(define-fun |invaders#146| ((state |invaders_s|)) (_ BitVec 1) (ite (|invaders#15| state) (|invaders#145| state) (|invaders#143| state))) ; $procmux$745_Y
(define-fun |invaders#147| ((state |invaders_s|)) (_ BitVec 1) (ite (|invaders#4| state) #b0 (|invaders#146| state))) ; $0\o_invaders_array[19:0] [17]
(define-fun |invaders#148| ((state |invaders_s|)) (_ BitVec 1) (ite (= ((_ extract 0 0) (|invaders#2| state)) #b1) ((_ extract 18 18) (|invaders#2| state)) ((_ extract 19 19) (|invaders#2| state)))) ; $procmux$709_Y
(define-fun |invaders#149| ((state |invaders_s|)) (_ BitVec 1) (ite (= ((_ extract 0 0) (|invaders#8| state)) #b1) (|invaders#148| state) ((_ extract 18 18) (|invaders#2| state)))) ; $procmux$711_Y
(define-fun |invaders#150| ((state |invaders_s|)) (_ BitVec 1) (ite (|invaders#0| state) (|invaders#149| state) ((_ extract 18 18) (|invaders#2| state)))) ; $procmux$713_Y
(define-fun |invaders#151| ((state |invaders_s|)) Bool (= (|invaders#7| state) #b10010)) ; $procmux$718_CMP
(define-fun |invaders#152| ((state |invaders_s|)) (_ BitVec 1) (ite (|invaders#151| state) #b0 ((_ extract 18 18) (|invaders#2| state)))) ; $procmux$717_Y
(define-fun |invaders#153| ((state |invaders_s|)) (_ BitVec 1) (ite (|invaders#15| state) (|invaders#152| state) (|invaders#150| state))) ; $procmux$719_Y
(define-fun |invaders#154| ((state |invaders_s|)) (_ BitVec 1) (ite (|invaders#4| state) #b0 (|invaders#153| state))) ; $0\o_invaders_array[19:0] [18]
(define-fun |invaders#155| ((state |invaders_s|)) (_ BitVec 1) (ite (= ((_ extract 0 0) (|invaders#2| state)) #b1) ((_ extract 19 19) (|invaders#2| state)) #b0)) ; $procmux$174_Y
(define-fun |invaders#156| ((state |invaders_s|)) (_ BitVec 1) (ite (= ((_ extract 0 0) (|invaders#8| state)) #b1) (|invaders#155| state) ((_ extract 19 19) (|invaders#2| state)))) ; $procmux$176_Y
(define-fun |invaders#157| ((state |invaders_s|)) (_ BitVec 1) (ite (|invaders#0| state) (|invaders#156| state) ((_ extract 19 19) (|invaders#2| state)))) ; $procmux$178_Y
(define-fun |invaders#158| ((state |invaders_s|)) Bool (= (|invaders#7| state) #b10011)) ; $procmux$182_CMP
(define-fun |invaders#159| ((state |invaders_s|)) (_ BitVec 1) (ite (|invaders#158| state) #b0 ((_ extract 19 19) (|invaders#2| state)))) ; $procmux$181_Y
(define-fun |invaders#160| ((state |invaders_s|)) (_ BitVec 1) (ite (|invaders#15| state) (|invaders#159| state) (|invaders#157| state))) ; $procmux$183_Y
(define-fun |invaders#161| ((state |invaders_s|)) (_ BitVec 1) (ite (|invaders#4| state) #b0 (|invaders#160| state))) ; $0\o_invaders_array[19:0] [19]
(define-fun |invaders#162| ((state |invaders_s|)) (_ BitVec 4) (ite (= ((_ extract 0 0) (|invaders#2| state)) #b1) ((_ extract 3 0) (|invaders#12| state)) (|invaders#1| state))) ; $procmux$866_Y
(define-fun |invaders#163| ((state |invaders_s|)) (_ BitVec 4) (ite (= ((_ extract 0 0) (|invaders#8| state)) #b1) (|invaders#162| state) (|invaders#1| state))) ; $procmux$868_Y
(define-fun |invaders#164| ((state |invaders_s|)) (_ BitVec 4) (ite (|invaders#0| state) (|invaders#163| state) (|invaders#1| state))) ; $procmux$870_Y
(define-fun |invaders#165| ((state |invaders_s|)) (_ BitVec 4) (ite (|invaders#15| state) (|invaders#1| state) (|invaders#164| state))) ; $procmux$873_Y
(define-fun |invaders#166| ((state |invaders_s|)) (_ BitVec 4) (ite (|invaders#4| state) #b0001 (|invaders#165| state))) ; $0\o_invaders_row[3:0]
(define-fun |invaders_a| ((state |invaders_s|)) Bool 
  (|$paramod/timer_1us/PERIOD=100000_a| (|invaders_h speed_timer1| state))
)
(define-fun |invaders_u| ((state |invaders_s|)) Bool 
  (|$paramod/timer_1us/PERIOD=100000_u| (|invaders_h speed_timer1| state))
)
(define-fun |invaders_i| ((state |invaders_s|)) Bool (and
  (= (|invaders#1| state) #b0001) ; o_invaders_row
  (= (|invaders#2| state) #b00000000000111111111) ; o_invaders_array
  (= (= ((_ extract 0 0) (|invaders#3| state)) #b1) false) ; o_hit
  (= (= ((_ extract 0 0) (|invaders#8| state)) #b1) false) ; direction
  (|$paramod/timer_1us/PERIOD=100000_i| (|invaders_h speed_timer1| state))
))
(define-fun |invaders_h| ((state |invaders_s|)) Bool (and
  (= (|invaders_is| state) (|$paramod/timer_1us/PERIOD=100000_is| (|invaders_h speed_timer1| state)))
  (= (|invaders#0| state) (|$paramod/timer_1us/PERIOD=100000_n o_q| (|invaders_h speed_timer1| state))) ; $paramod/timer_1us/PERIOD=100000.o_q
  (= (|invaders#4| state) (|$paramod/timer_1us/PERIOD=100000_n i_reset| (|invaders_h speed_timer1| state))) ; $paramod/timer_1us/PERIOD=100000.i_reset
  (= (|invaders#5| state) (|$paramod/timer_1us/PERIOD=100000_n i_clk_36MHz| (|invaders_h speed_timer1| state))) ; $paramod/timer_1us/PERIOD=100000.i_clk_36MHz
  (|$paramod/timer_1us/PERIOD=100000_h| (|invaders_h speed_timer1| state))
))
(define-fun |invaders_t| ((state |invaders_s|) (next_state |invaders_s|)) Bool (and
  (= (|invaders#17| state) (|invaders#8| next_state)) ; $procdff$917 \direction
  (= (|invaders#21| state) (|invaders#3| next_state)) ; $procdff$914 \o_hit
  (= (concat (|invaders#161| state) (concat (|invaders#154| state) (concat (|invaders#147| state) (concat (|invaders#140| state) (concat (|invaders#133| state) (concat (|invaders#126| state) (concat (|invaders#119| state) (concat (|invaders#112| state) (concat (|invaders#105| state) (concat (|invaders#98| state) (concat (|invaders#91| state) (concat (|invaders#84| state) (concat (|invaders#77| state) (concat (|invaders#70| state) (concat (|invaders#63| state) (concat (|invaders#56| state) (concat (|invaders#49| state) (concat (|invaders#42| state) (concat (|invaders#35| state) (|invaders#28| state)))))))))))))))))))) (|invaders#2| next_state)) ; $procdff$915 \o_invaders_array
  (= (|invaders#166| state) (|invaders#1| next_state)) ; $procdff$916 \o_invaders_row
  (|$paramod/timer_1us/PERIOD=100000_t| (|invaders_h speed_timer1| state) (|invaders_h speed_timer1| next_state))
)) ; end of module invaders
; yosys-smt2-topmod invaders
; end of yosys output
